8085
39, 36, 35, 34, 44, 46, 16, 29, 50, 20, 23, 30, 2, 7, 42, 21, 17, 3, 18, 31, 22, 49, 1, 32, 45, 19, 41, 8, 9, 10, 33, 43, 4, 28, 26, 47, 27, 13, 14, 52, 11, 51, 12, 25, 6, 5, 15, 48, 24, 37, 38, 40
